outputs/case_379.model.txt
shareholding_change_percent = 0
original_pledge_valid = False
days_since_2008_revision = 0
shareholding_percent_at_conversion = 0
shareholding_percent = 101/2
declaration_made_at_conversion = True
pledge_to_subsidiary = False
violation_article_16_7_exception = False
approval_25_percent = 0
declaration_made = False
approval_rejected = False
business_days_since_application = 0
shareholding_percent_before_2008 = 0
days_to_dispose_exceeding_shares = 7
declaration_made_for_change = True
days_since_shareholding_over_5_percent = 0
approval_10_percent = 0
shareholding_percent_change = 1/2
approval_granted = False
shareholding_percent_after_establishment = 6
is_before_conversion = False
disposition_deadline = 7
meets_qualification_conditions = True
third_party_trust_included_in_related_persons = True
approval_50_percent = 1
declaration_made_article_16_1 = True
shareholding_exceeding_without_declaration_or_approval = True
approval_qualification_and_documents = True
shareholding_over_10_percent_pledge_restriction = True
declaration_made_article_16_2 = True
shareholding_change_over_1_percent_declaration = True
holding_without_qualification_no_increase = True
approval_deemed_after_15_business_days = True
violation_article_16_1_2_9 = False
shareholding_over_thresholds_prior_approval = True
penalty = False
compliance_with_approval_requirements = True
declaration_made_article_16_9 = True
shareholding_over_5_percent_declaration_after_establishment = True
related_persons_inclusive = True
pre_2008_5_to_10_percent_declaration = True
shareholding_over_10_percent_declaration_at_conversion = True
disposition_within_deadline = True